p tw 99 256
0 1
0 25
0 59
0 64
1 21
2 3
2 4
2 5
2 6
2 27
2 28
2 29
3 4
3 5
3 6
3 86
4 5
4 6
4 71
4 72
4 73
5 6
5 42
6 87
7 8
7 9
7 10
7 11
7 20
7 68
7 70
8 9
8 10
8 11
8 57
9 10
9 11
9 19
9 69
10 11
10 40
10 41
11 53
11 60
11 85
12 13
12 14
12 15
12 16
12 82
12 95
13 14
13 15
13 16
13 81
14 15
14 16
14 55
14 62
14 83
15 16
15 74
15 75
15 76
15 77
16 92
16 93
16 94
17 18
17 60
17 61
17 62
17 63
18 53
18 54
18 55
18 56
19 20
19 69
20 68
20 70
21 28
21 47
21 64
21 65
22 23
22 24
22 30
22 31
22 32
22 33
23 24
23 66
23 67
24 80
24 84
24 88
24 89
25 26
25 59
25 64
26 58
26 65
27 28
27 29
27 42
27 71
27 86
27 87
28 29
28 47
28 64
28 65
29 46
29 80
30 31
30 32
30 33
30 66
30 89
31 32
31 33
31 73
31 91
32 33
32 67
32 88
33 41
33 85
34 35
34 36
34 37
34 78
34 79
35 36
35 37
35 39
35 72
35 90
35 98
36 37
36 49
36 50
36 51
37 45
38 39
38 52
39 72
39 90
39 98
40 41
40 48
41 85
42 71
42 86
42 87
43 44
43 96
43 97
44 46
44 47
45 49
45 52
45 78
45 98
46 47
46 80
47 64
47 65
48 50
48 79
49 50
49 51
49 52
49 78
49 98
50 51
50 79
51 90
51 91
52 78
52 98
53 54
53 55
53 56
53 60
53 85
54 55
54 56
54 61
55 56
55 62
55 83
56 63
57 68
58 59
58 65
59 64
60 61
60 62
60 63
60 85
61 62
61 63
62 63
62 83
64 65
66 67
66 89
67 88
68 70
69 70
71 72
71 73
71 86
71 87
72 73
72 90
72 98
73 91
74 75
74 76
74 77
74 92
74 97
75 76
75 77
75 93
75 95
75 96
76 77
76 81
77 94
78 79
78 98
80 84
80 88
80 89
82 83
82 84
82 95
83 84
84 88
84 89
86 87
88 89
90 91
90 98
92 93
92 94
92 97
93 94
93 95
93 96
95 96
96 97
